============================[ Problem Statistics ]=============================|                                                                             ||  Number of variables:          4242                                         ||  Number of clauses:           10217                                         ||  Parse time:                   0.60 s                                       ||                                                                             |============================[ Search Statistics ]==============================| Conflicts |          ORIGINAL         |          LEARNT          | Progress ||           |    Vars  Clauses Literals |    Limit  Clauses Lit/Cl |          |===============================================================================|       100 |    1591     6422   964803 |     2354      100     53 | 62.501 % ||       250 |    1591     6422   964803 |     2590      250     75 | 62.495 % |===============================================================================restarts              : 3conflicts             : 333            (364 /sec)decisions             : 597            (0.00 % random) (652 /sec)propagations          : 11918          (13011 /sec)conflict literals     : 26804          (94.66 % deleted)CPU time              : 0.916 sSATISFIABLE